NAME : gaussian_random165.9374.tour
COMMENT : Length = 9374
COMMENT : Found by LKH [Keld Helsgaun] Sun Jul  7 18:00:40 2024
TYPE : TOUR
DIMENSION : 165
TOUR_SECTION
1
115
13
137
136
30
63
79
163
87
93
18
46
130
69
102
165
62
54
118
36
17
9
65
95
64
16
41
106
124
84
125
15
56
48
27
76
23
157
2
90
40
53
32
151
159
114
139
85
143
8
5
98
10
150
110
156
127
81
49
26
131
75
94
37
25
104
38
109
4
132
153
59
80
77
6
152
107
67
29
83
112
22
120
52
96
100
20
74
123
70
72
99
44
33
91
39
92
21
97
111
11
119
149
135
113
146
35
89
28
117
162
24
145
101
66
68
138
78
134
45
86
141
57
58
14
61
51
161
42
158
73
43
50
121
148
103
105
129
144
55
133
155
116
154
164
126
147
31
140
7
88
108
60
122
12
160
34
3
71
47
19
128
82
142
-1
EOF
